p edge 20 41 8
v 2 3 5
v 2 8 11
v 1 12
v 4 1 10 16 19
v 3 13 14 15
v 3 4 6 17
v 1 18
v 4 2 7 9 20
e 1 7
e 1 8
e 1 13
e 1 16
e 2 8
e 2 9
e 2 10
e 2 12
e 2 14
e 2 16
e 3 4
e 3 6
e 3 9
e 3 13
e 3 19
e 4 8
e 4 9
e 4 12
e 4 14
e 4 16
e 4 20
e 5 8
e 5 12
e 6 7
e 6 15
e 6 16
e 7 10
e 7 11
e 7 16
e 8 9
e 10 16
e 10 17
e 10 19
e 11 17
e 11 18
e 12 13
e 13 14
e 14 17
e 15 19
e 18 19
e 19 20
